
  17    4
   1   1   1   1

   0   0   0   0   0   9 2 3 4 5 6 9 14 15 16 
   2   1   1   1   1   3   11   8   7
   5   0   0   0   1   4   13   12   11   10
   5   0   0   1   0   3   13   11   7
   6   0   1   1   1   2   11   8
   6   0   0   1   1   2   11   10
   2   1   0   1   1   1   12
   8   0   1   1   1   1   10
   6   0   0   0   1   1   10
   4   0   0   1   0   1   17
   5   0   0   1   0   1   17
   2   0   1   0   0   1   17
   1   0   1   1   0   1   17
   5   0   1   1   1   1   17
   8   0   0   1   1   1   17
   4   1   0   0   1   1   17
   0   0   0   0   0   0 
